certificates/rado_a15_c118_N29.cnf
c Rad2 upper bound instance: x1 + 15*x2 - x3 = 118, interval [1,29]
p cnf 29 112
1 3 8 0
-1 -3 -8 0
1 9 18 0
-1 -9 -18 0
2 4 8 0
-2 -4 -8 0
2 9 19 0
-2 -9 -19 0
3 5 8 0
-3 -5 -8 0
3 9 20 0
-3 -9 -20 0
4 6 8 0
-4 -6 -8 0
4 9 21 0
-4 -9 -21 0
5 7 8 0
-5 -7 -8 0
5 9 22 0
-5 -9 -22 0
6 8 0
-6 -8 0
6 9 23 0
-6 -9 -23 0
7 8 9 0
-7 -8 -9 0
7 9 24 0
-7 -9 -24 0
8 10 0
-8 -10 0
8 9 25 0
-8 -9 -25 0
8 9 11 0
-8 -9 -11 0
9 26 0
-9 -26 0
8 10 12 0
-8 -10 -12 0
9 10 27 0
-9 -10 -27 0
8 11 13 0
-8 -11 -13 0
9 11 28 0
-9 -11 -28 0
8 12 14 0
-8 -12 -14 0
9 12 29 0
-9 -12 -29 0
8 13 15 0
-8 -13 -15 0
1 7 14 0
-1 -7 -14 0
8 14 16 0
-8 -14 -16 0
2 7 15 0
-2 -7 -15 0
8 15 17 0
-8 -15 -17 0
3 7 16 0
-3 -7 -16 0
8 16 18 0
-8 -16 -18 0
4 7 17 0
-4 -7 -17 0
8 17 19 0
-8 -17 -19 0
5 7 18 0
-5 -7 -18 0
8 18 20 0
-8 -18 -20 0
6 7 19 0
-6 -7 -19 0
8 19 21 0
-8 -19 -21 0
7 20 0
-7 -20 0
8 20 22 0
-8 -20 -22 0
7 8 21 0
-7 -8 -21 0
8 21 23 0
-8 -21 -23 0
7 9 22 0
-7 -9 -22 0
8 22 24 0
-8 -22 -24 0
7 10 23 0
-7 -10 -23 0
8 23 25 0
-8 -23 -25 0
7 11 24 0
-7 -11 -24 0
8 24 26 0
-8 -24 -26 0
7 12 25 0
-7 -12 -25 0
8 25 27 0
-8 -25 -27 0
7 13 26 0
-7 -13 -26 0
8 26 28 0
-8 -26 -28 0
7 14 27 0
-7 -14 -27 0
8 27 29 0
-8 -27 -29 0
7 15 28 0
-7 -15 -28 0
1 6 29 0
-1 -6 -29 0
7 16 29 0
-7 -16 -29 0
