certificates/rado_a15_c118_N29.drat
-27 -29 0
d -27 -8 -29 0
14 16 27 0
10 -14 27 0
-9 -3 8 0
8 -28 -29 0
-8 27 0
-29 0
9 8 0
d 9 25 8 0
-10 0
8 0
-6 0
27 0
1 0
-25 0
-3 0
9 0
-11 0
-26 0
-7 0
-18 0
16 0
5 0
19 0
20 0
23 0
24 0
12 0
13 0
-14 0
-22 0
-21 0
-2 0
-17 0
-15 0
0
